p cnf 2869 2626
c ind 913 914 915 916 917 918 919 920 921 922 0
c ind 923 924 1200 1201 1202 1203 1204 1205 1206 1207 0
c ind 1208 1209 1210 1211 1212 1213 1214 1215 1216 1217 0
c ind 1218 1219 1220 1221 1222 1223 1224 1225 1226 1227 0
c ind 1228 1229 1230 1231 1232 1233 1234 1235 1236 1237 0
c ind 1238 1239 1240 1241 1242 1243 1244 1245 1246 1247 0
c ind 1248 1249 1250 1251 1252 1253 1254 1255 1256 1394 0
c ind 1395 1396 1397 1398 1399 1400 1401 1402 1403 1404 0
c ind 1405 1406 1407 1408 1409 1410 1411 1412 1413 1414 0
c ind 1415 1416 1417 1418 1419 1420 1421 1422 1423 1424 0
c ind 1425 1426 1427 1428 1429 1430 1431 1432 1433 1434 0
c ind 1581 1487 1488 1627 1628 1629 1630 1435 1631 1436 0
c ind 1632 1633 1634 1437 1635 1438 1636 1637 1638 1639 0
c ind 1640 1641 1583 1584 1585 1586 1587 1588 1589 1439 0
c ind 1590 1440 1591 1441 1592 1442 1593 1594 1595 1596 0
c ind 1597 1598 1599 1600 1601 1602 1582 1443 1603 1512 0
c ind 1513 1514 1515 1444 1445 1516 1517 1446 1518 1447 0
c ind 1519 1520 1521 1522 1523 1524 1525 1448 1526 1527 0
c ind 1528 1529 1530 1531 1449 1532 1450 1533 1534 1604 0
c ind 1605 1451 1452 1606 1607 1608 1609 1610 1611 1612 0
c ind 1613 1614 1615 1616 1617 1618 1619 1620 1453 971 0
c ind 1621 1454 1622 1455 1456 1623 1624 1625 1626 1489 0
c ind 1490 1491 1492 1493 1494 1495 1457 1496 1497 1498 0
c ind 1499 1500 1501 1458 1502 1459 1503 1504 1460 1461 0
c ind 1505 1506 1507 1508 1509 1510 1511 1535 1462 1463 0
c ind 1536 1537 1538 1464 1539 1540 1541 1542 1543 1544 0
c ind 1545 972 1546 1547 1548 1549 1550 1551 1552 1553 0
c ind 1465 1554 1555 1556 1466 1557 1467 1558 1559 1468 0
c ind 1469 1560 1561 1562 1563 1564 1565 1566 1567 1568 0
c ind 1569 1570 1571 1572 1573 1574 1575 1576 1577 1578 0
c ind 1579 1580 1257 1258 1259 1260 1261 1262 1263 1264 0
c ind 1265 1266 1267 1268 1269 1270 1271 1272 1273 1274 0
c ind 1275 1276 1277 1278 1279 973 974 975 976 977 0
c ind 978 979 980 981 982 983 984 985 1485 986 0
c ind 987 988 989 990 991 992 993 994 995 996 0
c ind 997 998 999 1000 1001 1002 1003 1004 1005 1006 0
c ind 1007 1008 1009 1010 1011 1012 1013 1014 1015 925 0
c ind 926 927 928 929 930 931 932 933 1486 934 0
c ind 935 936 937 938 939 940 941 942 943 944 0
c ind 945 946 947 948 949 950 951 952 953 954 0
c ind 955 956 957 958 959 960 961 962 963 964 0
c ind 965 966 967 968 969 970 879 880 881 882 0
c ind 883 884 885 886 887 888 889 890 891 892 0
c ind 893 894 895 896 897 898 899 900 901 902 0
c ind 903 904 905 906 907 908 909 910 911 912 0
730 -731 840 0
730 -731 757 0
-730 731 0
-757 -840 -730 0
731 -732 -746 -756 0
-731 732 0
-731 746 0
-731 756 0
732 733 -737 0
-732 -733 0
-732 737 0
-734 -1592 733 0
-736 -1592 733 0
-735 -1592 733 0
-733 1592 0
-733 734 735 736 0
734 -1598 1599 1600 0
-734 1598 0
-734 -1600 0
-734 -1599 0
735 1598 1601 1602 0
-735 -1598 0
-735 -1602 0
-735 -1601 0
736 -1593 1594 1595 0
-736 1593 0
-736 -1595 0
-736 -1594 0
737 738 742 -1526 -1623 0
-737 1623 0
-737 -742 0
-737 1526 0
-737 -738 0
739 1527 738 1528 1529 0
-738 -739 0
-738 -1529 0
-738 -1527 0
-738 -1528 0
739 740 -1532 0
739 740 741 -1533 0
-739 -740 0
-739 -741 1532 0
-739 1532 1533 0
740 1530 -1531 0
-740 -1530 0
-740 1531 0
741 1607 1608 0
741 1607 1615 1616 0
-741 -1607 0
-741 -1608 -1615 0
-741 -1608 -1616 0
743 1624 742 1625 1626 0
-742 -743 0
-742 -1626 0
-742 -1624 0
-742 -1625 0
743 744 -1491 0
743 744 745 -1492 0
-743 -744 0
-743 -745 1491 0
-743 1491 1492 0
744 1489 -1490 0
-744 -1489 0
-744 1490 0
745 1497 1498 0
745 1497 1505 1506 0
-745 -1497 0
-745 -1498 -1505 0
-745 -1498 -1506 0
746 -749 994 0
746 -749 987 0
746 747 -749 0
-746 749 0
-747 -987 -746 -994 0
747 -748 -995 996 0
-747 995 0
-747 -996 0
-747 748 0
748 998 -999 -1000 1001 0
-748 -998 0
-748 -1001 0
-748 1000 0
-748 999 0
749 750 -753 755 0
749 750 -753 1581 0
-749 753 0
-749 -750 0
-755 -1581 -749 0
-751 -752 750 -976 0
-751 -752 750 -977 0
-750 752 0
-750 751 0
-750 976 977 0
751 979 980 981 982 0
-751 -982 0
-751 -981 0
-751 -979 0
-751 -980 0
752 -973 -974 -975 978 0
-752 975 0
-752 -978 0
-752 973 0
-752 974 0
753 -754 -898 -932 0
-753 898 0
-753 932 0
-753 754 0
754 -961 -1202 -1231 -1397 0
-754 1397 0
-754 961 0
-754 1231 0
-754 1202 0
755 1576 1577 1578 0
-755 -1576 0
-755 -1578 0
-755 -1577 0
756 -972 -1485 0
756 -971 1486 0
756 -971 -1485 0
756 -972 1486 0
1485 -1486 -756 0
971 972 -756 0
757 -758 -787 -796 -821 0
-757 821 0
-757 758 0
-757 796 0
-757 787 0
758 776 -1687 0
758 759 776 0
-758 -776 0
-758 -759 1687 0
759 -760 -753 0
759 774 -753 0
753 -759 0
-759 760 -774 0
760 -761 -773 -1469 0
760 761 -762 -773 0
-760 773 0
-760 -761 1469 0
-760 761 762 0
761 927 -929 0
-761 -927 0
-761 929 0
762 -763 -1468 0
762 763 -764 0
-762 -763 1468 0
-762 763 764 0
763 990 -992 0
-763 -990 0
-763 992 0
764 765 750 772 0
764 765 750 -769 0
-750 -764 0
-764 -765 0
-764 769 -772 0
765 -767 -1273 1581 0
765 766 1273 1581 0
-765 -1581 0
-765 767 -1273 0
-765 -766 1273 0
766 -1465 -732 0
-766 1465 0
732 -766 0
767 -768 1466 0
766 767 768 0
-767 -768 -1466 0
-766 -767 768 0
768 1563 -1565 0
-768 -1563 0
-768 1565 0
767 769 -770 0
-767 -769 0
-769 770 0
770 771 -1576 0
770 771 -1577 0
770 771 -1578 0
-770 -771 0
-770 1576 1577 1578 0
771 1260 -1262 0
-771 -1260 0
-771 1262 0
772 1467 -1581 0
771 772 -1581 0
-772 1581 0
-771 -772 -1467 0
773 -987 994 0
-773 987 0
-773 -994 0
774 775 -987 0
762 764 774 0
764 774 775 0
762 774 -987 0
-764 -774 987 0
-762 -774 -775 0
747 775 -987 -994 0
-775 987 0
-775 994 0
-747 -775 0
776 -777 1475 0
776 777 -1475 0
-776 -777 -1475 0
-776 777 1475 0
777 -778 -753 0
777 786 -753 0
753 -777 0
-777 778 -786 0
761 -773 778 -779 0
-761 -773 778 -1438 0
773 -778 0
761 -778 779 0
-761 -778 1438 0
-763 779 -1437 0
763 779 -780 0
-763 -779 1437 0
763 -779 780 0
780 781 750 785 0
780 781 750 -784 0
-750 -780 0
-780 -781 0
-780 784 -785 0
781 782 1436 -1581 0
771 781 782 -1581 0
-781 1581 0
-781 -782 0
-771 -781 -1436 0
-770 782 783 0
770 -782 0
-782 -783 0
768 783 1486 0
-768 783 1435 0
732 768 783 0
-768 -783 -1435 0
768 -783 -732 -1486 0
784 1273 -732 -1486 0
768 784 -732 -1486 0
732 -784 0
-784 1486 0
-768 -784 -1273 0
768 785 1581 0
785 1273 1581 0
785 1435 1581 0
-785 -1581 0
-768 -785 -1273 -1435 0
779 786 -987 0
775 780 786 0
779 780 786 0
775 786 -987 0
-775 -779 -786 0
-780 -786 987 0
787 -753 -788 0
787 -753 795 0
753 -787 0
788 -795 -787 0
761 -773 788 -789 0
-761 -773 788 -1442 0
773 -788 0
761 -788 789 0
-761 -788 1442 0
-763 789 -1441 0
763 789 -790 0
-763 -789 1441 0
763 -789 790 0
790 791 750 794 0
790 791 750 -793 0
-750 -790 0
-790 -791 0
-790 793 -794 0
791 -792 -1273 1581 0
732 791 1273 1581 0
-791 -1581 0
-791 792 -1273 0
-791 1273 -732 0
732 768 792 0
-768 792 1439 0
768 -792 -732 0
-768 -792 -1439 0
-770 792 793 0
770 -793 0
-792 -793 0
794 1440 -1581 0
771 794 -1581 0
-794 1581 0
-771 -794 -1440 0
789 795 -987 0
775 790 795 0
789 790 795 0
775 795 -987 0
-775 -789 -795 0
-790 -795 987 0
796 797 811 -814 1670 0
796 -797 811 -814 -1670 0
-796 -811 0
-796 -797 1670 0
-796 814 0
-796 797 -1670 0
797 808 -753 0
797 798 -753 -801 0
753 -797 0
-797 -798 -808 0
-797 801 -808 0
798 -800 -1273 1581 0
798 799 1273 1581 0
-798 -1581 0
-798 800 -1273 0
-798 -799 1273 0
799 -1448 -732 0
-799 1448 0
732 -799 0
-768 800 1449 0
768 799 800 0
-768 -800 -1449 0
768 -799 -800 0
801 802 -803 0
-770 800 801 -803 0
-801 803 0
-800 -801 -802 0
770 -801 -802 0
802 1450 -1581 0
771 802 -1581 0
-802 1581 0
-771 -802 -1450 0
803 804 750 0
-750 -803 0
-803 -804 0
-763 804 -987 0
804 805 -987 0
-804 987 0
763 -804 -805 0
805 806 807 0
748 805 806 -987 0
-805 -806 0
-805 -807 987 0
-748 -805 -807 0
-761 806 994 0
-806 -994 0
761 -806 0
807 -994 -995 996 0
-807 994 0
-807 995 0
-807 -996 0
761 808 809 0
773 808 809 0
808 809 1452 0
-808 -809 0
-761 -773 -808 -1452 0
-763 809 -810 -1451 0
-809 1451 0
763 -809 0
-809 810 0
-805 810 -987 0
-810 987 0
805 -810 0
811 -812 -1650 0
811 812 1650 0
-811 -812 1650 0
-811 812 -1650 0
812 -813 -746 0
746 -812 0
-812 813 0
813 -1426 -737 1428 0
-813 1426 0
-813 -1428 0
737 -813 0
814 815 -746 -818 0
814 -815 -746 -817 0
746 -814 0
-815 817 -814 0
815 818 -814 0
815 -1274 1541 0
815 816 1541 0
815 -1273 1541 0
-815 -1541 0
-815 -816 1273 1274 0
816 1275 1276 1277 1581 0
-816 -1581 0
-816 -1277 0
-816 -1275 0
-816 -1276 0
817 -1434 -1464 0
813 817 -1464 0
-817 1464 0
-813 -817 1434 0
818 820 -737 -1432 0
818 819 -737 820 0
737 -818 0
-818 -820 0
-818 -819 1432 0
819 -1426 1428 0
-819 1426 0
-819 -1428 0
-733 820 1426 0
820 1426 1463 1630 0
-820 -1426 0
-820 -1463 733 0
-820 -1630 733 0
821 -822 -830 -1679 0
821 822 -830 1679 0
-821 830 0
-821 822 -1679 0
-821 -822 1679 0
822 828 -753 0
822 823 -753 -826 0
753 -822 0
-822 -823 -828 0
-822 826 -828 0
823 -825 -1273 1581 0
823 824 1273 1581 0
-823 -1581 0
-823 825 -1273 0
-823 -824 1273 0
824 -1457 -732 0
-824 1457 0
732 -824 0
-768 825 1458 0
768 824 825 0
-768 -825 -1458 0
768 -824 -825 0
-803 826 827 0
-770 -803 825 826 0
803 -826 0
770 -826 -827 0
-825 -826 -827 0
827 1459 -1581 0
771 827 -1581 0
-827 1581 0
-771 -827 -1459 0
761 828 829 0
773 828 829 0
828 829 1461 0
-828 -829 0
-761 -773 -828 -1461 0
-763 -810 829 -1460 0
-829 1460 0
763 -829 0
810 -829 0
804 830 -753 831 0
830 831 -753 839 0
753 -830 0
-830 -831 0
-804 -839 -830 0
833 987 831 0
763 832 831 833 0
-831 -833 0
-831 -832 -987 0
-763 -831 -987 0
-761 832 994 -1456 0
761 -832 0
-832 1456 0
-832 -994 0
833 834 750 838 0
833 834 750 -837 0
-750 -833 0
-833 -834 0
-833 837 -838 0
834 -836 -1273 1581 0
834 835 1273 1581 0
-834 -1581 0
-834 836 -1273 0
-834 -835 1273 0
835 -1485 -732 0
-835 1485 0
732 -835 0
-768 836 1453 0
768 835 836 0
-768 -836 -1453 0
768 -835 -836 0
-770 836 837 0
770 -837 0
-836 -837 0
838 1454 -1581 0
771 838 -1581 0
-838 1581 0
-771 -838 -1454 0
832 839 1455 0
805 832 839 0
-832 -839 0
-805 -839 -1455 0
840 -841 851 -1665 0
840 841 851 1665 0
-840 -851 0
-840 841 -1665 0
-840 -841 1665 0
841 -842 -753 0
841 850 -753 0
753 -841 0
-841 842 -850 0
761 -773 842 -843 0
-761 -773 842 -1447 0
773 -842 0
761 -842 843 0
-761 -842 1447 0
-763 843 -1446 0
763 843 -844 0
-763 -843 1446 0
763 -843 844 0
844 845 750 849 0
844 845 750 -848 0
-750 -844 0
-844 -845 0
-844 848 -849 0
845 -847 -1273 1581 0
845 846 1273 1581 0
-845 -1581 0
-845 847 -1273 0
-845 -846 1273 0
846 -1443 -732 0
-846 1443 0
732 -846 0
-768 847 1444 0
768 846 847 0
-768 -847 -1444 0
768 -846 -847 0
-770 847 848 0
770 -848 0
-847 -848 0
849 1445 -1581 0
771 849 -1581 0
-849 1581 0
-771 -849 -1445 0
843 850 -987 0
775 844 850 0
843 844 850 0
775 850 -987 0
-775 -843 -850 0
-844 -850 987 0
759 851 -1687 0
-851 1687 0
-759 -851 0
853 -731 852 0
-759 2500 852 -731 0
759 -2500 852 -731 0
731 -852 0
759 -852 -853 2500 0
-759 -852 -853 -2500 0
777 853 854 -855 2288 0
-777 853 854 -855 -2288 0
-853 -854 0
-777 2288 -853 0
-853 855 0
777 -2288 -853 0
-841 2478 854 0
841 -2478 854 0
-841 -854 -2478 0
841 -854 2478 0
822 855 -787 -856 2492 0
-822 855 -787 -856 -2492 0
-855 856 0
822 -2492 -855 0
787 -855 0
-822 2492 -855 0
797 856 -857 -858 2483 0
-797 856 -857 -858 -2483 0
-856 858 0
797 -2483 -856 0
-856 857 0
-797 2483 -856 0
-812 857 2463 0
812 857 -2463 0
-812 -2463 -857 0
812 2463 -857 0
858 -830 -814 0
814 -858 0
830 -858 0
-841 859 -731 0
757 859 -731 0
-851 859 -731 0
731 -859 0
-757 841 851 -859 0
860 863 -731 0
787 860 -731 0
860 861 -731 0
731 -860 0
-860 -861 -787 -863 0
-796 861 -862 0
796 -861 0
-861 862 0
-758 851 862 0
758 -862 0
-851 -862 0
822 863 -830 0
-822 -863 0
830 -863 0
-797 864 -731 0
864 865 -731 0
862 864 -731 0
731 -864 0
797 -862 -864 -865 0
811 865 -866 0
-811 -865 0
-865 866 0
866 -858 -787 0
787 -866 0
858 -866 0
-759 867 -731 0
867 868 -731 0
731 -867 0
759 -867 -868 0
776 -865 868 0
-776 -868 0
865 -868 0
-777 869 -731 0
865 869 -731 0
731 -869 0
777 -865 -869 0
866 870 -731 0
812 870 -731 0
731 -870 0
-812 -870 -866 0
866 871 -731 0
731 -871 0
-866 -871 0
841 872 -731 0
757 872 -731 0
-851 872 -731 0
731 -872 0
-757 -841 851 -872 0
873 874 -731 0
787 873 -731 0
861 873 -731 0
731 -873 0
-861 -873 -787 -874 0
-822 874 -830 0
822 -874 0
830 -874 0
865 875 -731 0
797 875 -731 0
862 875 -731 0
731 -875 0
-797 -862 -865 -875 0
868 876 -731 0
759 876 -731 0
731 -876 0
-759 -868 -876 0
865 877 -731 0
777 877 -731 0
731 -877 0
-777 -865 -877 0
-812 878 -731 0
866 878 -731 0
731 -878 0
812 -878 -866 0
1 730 0
-1 -730 0
2 730 0
-2 -730 0
3 852 0
-3 -852 0
97 -859 0
-97 859 0
98 -860 0
-98 860 0
99 -864 0
-99 864 0
100 -867 0
-100 867 0
102 -869 0
-102 869 0
120 -870 0
-120 870 0
269 -871 0
-269 871 0
460 -872 0
-460 872 0
461 -873 0
-461 873 0
462 -875 0
-462 875 0
463 -876 0
-463 876 0
465 -877 0
-465 877 0
483 -878 0
-483 878 0
632 -871 0
-632 871 0
-97 -460 2599 0
97 -2599 0
460 -2599 0
97 -1665 0
-97 1665 0
-98 -461 2600 0
98 -2600 0
461 -2600 0
98 -1679 0
-98 1679 0
-99 -462 2601 0
99 -2601 0
462 -2601 0
99 -1670 0
-99 1670 0
-100 -463 2602 0
100 -2602 0
463 -2602 0
100 -1687 0
-100 1687 0
-102 -465 2604 0
102 -2604 0
465 -2604 0
102 -1475 0
-102 1475 0
-120 -483 2622 0
120 -2622 0
483 -2622 0
120 -1650 0
-120 1650 0
-269 -632 2771 0
269 -2771 0
632 -2771 0
269 -1384 0
-269 1384 0
-1 0
-2 0
3 0
4 0
5 0
6 0
7 0
8 0
9 0
10 0
11 0
12 0
13 0
14 0
15 0
16 0
17 0
18 0
19 0
20 0
21 0
22 0
23 0
24 0
25 0
26 0
27 0
28 0
29 0
30 0
31 0
32 0
33 0
34 0
35 0
36 0
37 0
38 0
39 0
40 0
41 0
42 0
43 0
44 0
45 0
46 0
47 0
48 0
49 0
50 0
51 0
52 0
53 0
54 0
55 0
56 0
57 0
58 0
59 0
60 0
61 0
62 0
63 0
64 0
65 0
66 0
67 0
68 0
69 0
70 0
71 0
72 0
73 0
74 0
75 0
76 0
77 0
78 0
79 0
80 0
81 0
82 0
83 0
84 0
85 0
86 0
87 0
88 0
89 0
90 0
91 0
92 0
93 0
94 0
95 0
96 0
101 0
103 0
104 0
105 0
106 0
107 0
108 0
109 0
110 0
111 0
112 0
113 0
114 0
115 0
116 0
117 0
118 0
119 0
121 0
122 0
123 0
124 0
125 0
126 0
127 0
128 0
129 0
130 0
131 0
132 0
133 0
134 0
135 0
136 0
137 0
138 0
139 0
140 0
141 0
142 0
143 0
144 0
145 0
146 0
147 0
148 0
149 0
150 0
151 0
152 0
153 0
154 0
155 0
156 0
157 0
158 0
159 0
160 0
161 0
162 0
163 0
164 0
165 0
166 0
167 0
168 0
169 0
170 0
171 0
172 0
173 0
174 0
175 0
176 0
177 0
178 0
179 0
180 0
181 0
182 0
183 0
184 0
185 0
186 0
187 0
188 0
189 0
190 0
191 0
192 0
193 0
194 0
195 0
196 0
197 0
198 0
199 0
200 0
201 0
202 0
203 0
204 0
205 0
206 0
207 0
208 0
209 0
210 0
211 0
212 0
213 0
214 0
-215 0
216 0
217 0
218 0
219 0
220 0
221 0
222 0
223 0
224 0
225 0
226 0
227 0
228 0
229 0
230 0
231 0
232 0
233 0
234 0
235 0
236 0
237 0
238 0
239 0
240 0
241 0
242 0
243 0
244 0
245 0
246 0
247 0
248 0
249 0
250 0
251 0
252 0
253 0
254 0
255 0
256 0
257 0
258 0
259 0
260 0
261 0
262 0
263 0
264 0
265 0
266 0
267 0
268 0
-269 0
270 0
271 0
272 0
273 0
274 0
275 0
276 0
277 0
-278 0
279 0
280 0
281 0
282 0
283 0
284 0
285 0
286 0
287 0
288 0
289 0
290 0
291 0
292 0
293 0
294 0
295 0
296 0
297 0
298 0
299 0
300 0
301 0
302 0
303 0
304 0
305 0
-306 0
307 0
308 0
309 0
310 0
311 0
312 0
313 0
314 0
315 0
316 0
317 0
318 0
319 0
320 0
321 0
322 0
323 0
324 0
325 0
326 0
327 0
328 0
329 0
330 0
331 0
332 0
333 0
334 0
335 0
336 0
337 0
338 0
339 0
340 0
341 0
342 0
343 0
344 0
345 0
346 0
347 0
348 0
349 0
350 0
351 0
352 0
353 0
354 0
355 0
356 0
357 0
358 0
359 0
360 0
361 0
362 0
363 0
364 0
365 0
366 0
-367 0
-368 0
-369 0
-370 0
-371 0
-372 0
-373 0
-374 0
-375 0
-376 0
-377 0
-378 0
-379 0
-380 0
-381 0
-382 0
-383 0
-384 0
-385 0
-386 0
-387 0
-388 0
-389 0
-390 0
-391 0
-392 0
-393 0
-394 0
-395 0
-396 0
-397 0
-398 0
-399 0
-400 0
-401 0
-402 0
-403 0
-404 0
-405 0
-406 0
-407 0
-408 0
-409 0
-410 0
-411 0
-412 0
-413 0
-414 0
-415 0
-416 0
-417 0
-418 0
-419 0
-420 0
-421 0
-422 0
-423 0
-424 0
-425 0
-426 0
-427 0
-428 0
-429 0
-430 0
-431 0
-432 0
-433 0
-434 0
-435 0
-436 0
-437 0
-438 0
-439 0
-440 0
-441 0
-442 0
-443 0
-444 0
-445 0
-446 0
-447 0
-448 0
-449 0
-450 0
-451 0
-452 0
-453 0
-454 0
-455 0
-456 0
-457 0
-458 0
-459 0
-464 0
-466 0
-467 0
-468 0
-469 0
-470 0
-471 0
-472 0
-473 0
-474 0
-475 0
-476 0
-477 0
-478 0
-479 0
-480 0
-481 0
-482 0
-484 0
-485 0
-486 0
-487 0
-488 0
-489 0
-490 0
-491 0
-492 0
-493 0
-494 0
-495 0
-496 0
-497 0
-498 0
-499 0
-500 0
-501 0
-502 0
-503 0
-504 0
-505 0
-506 0
-507 0
-508 0
-509 0
-510 0
-511 0
-512 0
-513 0
-514 0
-515 0
-516 0
-517 0
-518 0
-519 0
-520 0
-521 0
-522 0
-523 0
-524 0
-525 0
-526 0
-527 0
-528 0
-529 0
-530 0
-531 0
-532 0
-533 0
-534 0
-535 0
-536 0
-537 0
-538 0
-539 0
-540 0
-541 0
-542 0
-543 0
-544 0
-545 0
-546 0
-547 0
-548 0
-549 0
-550 0
-551 0
-552 0
-553 0
-554 0
-555 0
-556 0
-557 0
-558 0
-559 0
-560 0
-561 0
-562 0
-563 0
-564 0
-565 0
-566 0
-567 0
-568 0
-569 0
-570 0
-571 0
-572 0
-573 0
-574 0
-575 0
-576 0
-577 0
578 0
-579 0
-580 0
-581 0
-582 0
-583 0
-584 0
-585 0
-586 0
-587 0
-588 0
-589 0
-590 0
-591 0
-592 0
-593 0
-594 0
-595 0
-596 0
-597 0
-598 0
-599 0
-600 0
-601 0
-602 0
-603 0
-604 0
-605 0
-606 0
-607 0
-608 0
-609 0
-610 0
-611 0
-612 0
-613 0
-614 0
-615 0
-616 0
-617 0
-618 0
-619 0
-620 0
-621 0
-622 0
-623 0
-624 0
-625 0
-626 0
-627 0
-628 0
-629 0
-630 0
-631 0
-632 0
-633 0
-634 0
-635 0
-636 0
-637 0
-638 0
-639 0
-640 0
641 0
-642 0
-643 0
-644 0
-645 0
-646 0
-647 0
-648 0
-649 0
-650 0
-651 0
-652 0
-653 0
-654 0
-655 0
-656 0
-657 0
-658 0
-659 0
-660 0
-661 0
-662 0
-663 0
-664 0
-665 0
-666 0
-667 0
-668 0
669 0
-670 0
-671 0
-672 0
-673 0
-674 0
-675 0
-676 0
-677 0
-678 0
-679 0
-680 0
-681 0
-682 0
-683 0
-684 0
-685 0
-686 0
-687 0
-688 0
-689 0
-690 0
-691 0
-692 0
-693 0
-694 0
-695 0
-696 0
-697 0
-698 0
-699 0
-700 0
-701 0
-702 0
-703 0
-704 0
-705 0
-706 0
-707 0
-708 0
-709 0
-710 0
-711 0
-712 0
-713 0
-714 0
-715 0
-716 0
-717 0
-718 0
-719 0
-720 0
-721 0
-722 0
-723 0
-724 0
-725 0
-726 0
-727 0
-728 0
-729 0
730 0
731 0
732 0
-733 0
737 0
-738 0
-742 0
746 0
749 0
-750 0
753 0
754 0
756 0
787 0
814 0
830 0
-831 0
-852 0
853 0
-854 0
855 0
856 0
857 0
858 0
866 0
-871 0
898 0
932 0
961 0
1016 0
1017 0
1018 0
1019 0
1020 0
1021 0
1022 0
1023 0
1024 0
1025 0
1026 0
1027 0
1028 0
1029 0
1030 0
1031 0
1032 0
1033 0
1034 0
1035 0
1036 0
1037 0
1038 0
1039 0
1040 0
1041 0
1042 0
1043 0
1044 0
1045 0
1046 0
1047 0
1048 0
1049 0
1050 0
1051 0
1052 0
1053 0
1054 0
1055 0
1056 0
1057 0
1058 0
1059 0
1060 0
1061 0
1062 0
1063 0
1064 0
1065 0
1066 0
1067 0
1068 0
1069 0
1070 0
1071 0
1072 0
1073 0
1074 0
1075 0
1076 0
1077 0
1078 0
1079 0
1080 0
1081 0
1082 0
1083 0
1084 0
1085 0
1086 0
1087 0
1088 0
1089 0
1090 0
1091 0
1092 0
1093 0
1094 0
1095 0
1096 0
1097 0
1098 0
1099 0
1100 0
1101 0
1102 0
1103 0
1104 0
1105 0
1106 0
1107 0
1108 0
1109 0
1110 0
1111 0
1112 0
1113 0
1114 0
1115 0
1116 0
1117 0
1118 0
1119 0
1120 0
1121 0
1122 0
1123 0
1124 0
1125 0
1126 0
1127 0
1128 0
1129 0
1130 0
1131 0
1132 0
1133 0
1134 0
1135 0
1136 0
1137 0
1138 0
1139 0
1140 0
1141 0
1142 0
1143 0
1144 0
1145 0
1146 0
1147 0
1148 0
1149 0
1150 0
1151 0
1152 0
1153 0
1154 0
1155 0
1156 0
1157 0
1158 0
1159 0
1160 0
1161 0
1162 0
1163 0
1164 0
1165 0
1166 0
1167 0
1168 0
1169 0
1170 0
1171 0
1172 0
1173 0
1174 0
1175 0
1176 0
1177 0
1178 0
1179 0
1180 0
1181 0
1182 0
1183 0
1184 0
1185 0
1186 0
1187 0
1188 0
1189 0
1190 0
1191 0
1192 0
1193 0
1194 0
1195 0
1196 0
1197 0
1198 0
1199 0
1202 0
1231 0
1280 0
1281 0
1282 0
1283 0
1284 0
1285 0
1286 0
1287 0
1288 0
1289 0
1290 0
1291 0
1292 0
1293 0
1294 0
1295 0
1296 0
1297 0
1298 0
1299 0
1300 0
1301 0
1302 0
1303 0
1304 0
1305 0
1306 0
1307 0
1308 0
1309 0
1310 0
1311 0
1312 0
1313 0
1314 0
1315 0
1316 0
1317 0
1318 0
1319 0
1320 0
1321 0
1322 0
1323 0
1324 0
1325 0
1326 0
1327 0
-1328 0
1329 0
1330 0
1331 0
1332 0
1333 0
1334 0
1335 0
1336 0
1337 0
1338 0
1339 0
1340 0
1341 0
1342 0
1343 0
1344 0
1345 0
1346 0
1347 0
1348 0
1349 0
1350 0
1351 0
1352 0
1353 0
1354 0
1355 0
-1356 0
1357 0
1358 0
1359 0
1360 0
1361 0
1362 0
1363 0
1364 0
1365 0
1366 0
1367 0
1368 0
1369 0
1370 0
1371 0
1372 0
1373 0
1374 0
1375 0
1376 0
1377 0
1378 0
1379 0
1380 0
1381 0
1382 0
1383 0
-1384 0
1385 0
1386 0
1387 0
1388 0
1389 0
1390 0
1391 0
1392 0
1393 0
1397 0
-1470 0
1471 0
1472 0
1473 0
1474 0
1476 0
1477 0
1478 0
1479 0
1480 0
1481 0
1482 0
1483 0
1484 0
1526 0
1623 0
1642 0
1643 0
1644 0
1645 0
1646 0
1647 0
1648 0
1649 0
1651 0
1652 0
1653 0
1654 0
1655 0
1656 0
1657 0
1658 0
1659 0
1660 0
1661 0
1662 0
1663 0
1664 0
1666 0
1667 0
1668 0
1669 0
1671 0
1672 0
1673 0
1674 0
1675 0
1676 0
1677 0
1678 0
1680 0
1681 0
1682 0
1683 0
1684 0
1685 0
1686 0
1688 0
1689 0
1690 0
1691 0
2505 0
-2506 0
-2507 0
-2508 0
-2509 0
-2510 0
-2511 0
-2512 0
-2513 0
-2514 0
-2515 0
-2516 0
-2517 0
-2518 0
-2519 0
-2520 0
-2521 0
-2522 0
-2523 0
-2524 0
-2525 0
-2526 0
-2527 0
-2528 0
-2529 0
-2530 0
-2531 0
-2532 0
-2533 0
-2534 0
-2535 0
-2536 0
-2537 0
-2538 0
-2539 0
-2540 0
-2541 0
-2542 0
-2543 0
-2544 0
-2545 0
-2546 0
-2547 0
-2548 0
-2549 0
-2550 0
-2551 0
-2552 0
-2553 0
-2554 0
-2555 0
-2556 0
-2557 0
-2558 0
-2559 0
-2560 0
-2561 0
-2562 0
-2563 0
-2564 0
-2565 0
-2566 0
-2567 0
-2568 0
-2569 0
-2570 0
-2571 0
-2572 0
-2573 0
-2574 0
-2575 0
-2576 0
-2577 0
-2578 0
-2579 0
-2580 0
-2581 0
-2582 0
-2583 0
-2584 0
-2585 0
-2586 0
-2587 0
-2588 0
-2589 0
-2590 0
-2591 0
-2592 0
-2593 0
-2594 0
-2595 0
-2596 0
-2597 0
-2598 0
-2603 0
-2605 0
-2606 0
-2607 0
-2608 0
-2609 0
-2610 0
-2611 0
-2612 0
-2613 0
-2614 0
-2615 0
-2616 0
-2617 0
-2618 0
-2619 0
-2620 0
-2621 0
-2623 0
-2624 0
-2625 0
-2626 0
-2627 0
-2628 0
-2629 0
-2630 0
-2631 0
-2632 0
-2633 0
-2634 0
-2635 0
-2636 0
-2637 0
-2638 0
-2639 0
-2640 0
-2641 0
-2642 0
-2643 0
-2644 0
-2645 0
-2646 0
-2647 0
-2648 0
-2649 0
-2650 0
-2651 0
-2652 0
-2653 0
-2654 0
-2655 0
-2656 0
-2657 0
-2658 0
-2659 0
-2660 0
-2661 0
-2662 0
-2663 0
-2664 0
-2665 0
-2666 0
-2667 0
-2668 0
-2669 0
-2670 0
-2671 0
-2672 0
-2673 0
-2674 0
-2675 0
-2676 0
-2677 0
-2678 0
-2679 0
-2680 0
-2681 0
-2682 0
-2683 0
-2684 0
-2685 0
-2686 0
-2687 0
-2688 0
-2689 0
-2690 0
-2691 0
-2692 0
-2693 0
-2694 0
-2695 0
-2696 0
-2697 0
-2698 0
-2699 0
-2700 0
-2701 0
-2702 0
-2703 0
-2704 0
-2705 0
-2706 0
-2707 0
-2708 0
-2709 0
-2710 0
-2711 0
-2712 0
-2713 0
-2714 0
-2715 0
-2716 0
-2717 0
-2718 0
-2719 0
-2720 0
-2721 0
-2722 0
-2723 0
-2724 0
-2725 0
-2726 0
-2727 0
-2728 0
-2729 0
-2730 0
-2731 0
-2732 0
-2733 0
-2734 0
-2735 0
-2736 0
-2737 0
-2738 0
-2739 0
-2740 0
-2741 0
-2742 0
-2743 0
-2744 0
-2745 0
-2746 0
-2747 0
-2748 0
-2749 0
-2750 0
-2751 0
-2752 0
-2753 0
-2754 0
-2755 0
-2756 0
-2757 0
-2758 0
-2759 0
-2760 0
-2761 0
-2762 0
-2763 0
-2764 0
-2765 0
-2766 0
-2767 0
-2768 0
-2769 0
-2770 0
-2771 0
-2772 0
-2773 0
-2774 0
-2775 0
-2776 0
-2777 0
-2778 0
-2779 0
-2780 0
-2781 0
-2782 0
-2783 0
-2784 0
-2785 0
-2786 0
-2787 0
-2788 0
-2789 0
-2790 0
-2791 0
-2792 0
-2793 0
-2794 0
-2795 0
-2796 0
-2797 0
-2798 0
-2799 0
-2800 0
-2801 0
-2802 0
-2803 0
-2804 0
-2805 0
-2806 0
-2807 0
-2808 0
-2809 0
-2810 0
-2811 0
-2812 0
-2813 0
-2814 0
-2815 0
-2816 0
-2817 0
-2818 0
-2819 0
-2820 0
-2821 0
-2822 0
-2823 0
-2824 0
-2825 0
-2826 0
-2827 0
-2828 0
-2829 0
-2830 0
-2831 0
-2832 0
-2833 0
-2834 0
-2835 0
-2836 0
-2837 0
-2838 0
-2839 0
-2840 0
-2841 0
-2842 0
-2843 0
-2844 0
-2845 0
-2846 0
-2847 0
-2848 0
-2849 0
-2850 0
-2851 0
-2852 0
-2853 0
-2854 0
-2855 0
-2856 0
-2857 0
-2858 0
-2859 0
-2860 0
-2861 0
-2862 0
-2863 0
-2864 0
-2865 0
-2866 0
-2867 0
-2868 0
-1726 0
-1727 0
-1728 0
-1729 0
-1730 0
-1731 0
-1732 0
-1733 0
-1734 0
-1735 0
-1736 0
-1737 0
-2013 0
-2014 0
-2015 0
-2016 0
-2017 0
-2018 0
-2019 0
-2020 0
-2021 0
-2022 0
-2023 0
-2024 0
-2025 0
-2026 0
-2027 0
-2028 0
-2029 0
-2030 0
-2031 0
-2032 0
-2033 0
-2034 0
-2035 0
-2036 0
-2037 0
-2038 0
-2039 0
-2040 0
-2041 0
-2042 0
-2043 0
-2044 0
-2045 0
-2046 0
-2047 0
-2048 0
-2049 0
-2050 0
-2051 0
-2052 0
-2053 0
-2054 0
-2055 0
-2056 0
-2057 0
-2058 0
-2059 0
-2060 0
-2061 0
-2062 0
-2063 0
-2064 0
-2065 0
-2066 0
-2067 0
-2068 0
-2069 0
-2207 0
-2208 0
-2209 0
-2210 0
-2211 0
-2212 0
-2213 0
-2214 0
-2215 0
-2216 0
-2217 0
-2218 0
-2219 0
-2220 0
-2221 0
-2222 0
-2223 0
-2224 0
-2225 0
-2226 0
-2227 0
-2228 0
-2229 0
-2230 0
-2231 0
-2232 0
-2233 0
-2234 0
-2235 0
-2236 0
-2237 0
-2238 0
-2239 0
-2240 0
-2241 0
-2242 0
-2243 0
-2244 0
-2245 0
-2246 0
-2247 0
-2394 0
-2300 0
-2301 0
-2440 0
-2441 0
-2442 0
-2443 0
-2248 0
-2444 0
-2249 0
-2445 0
-2446 0
-2447 0
-2250 0
-2448 0
-2251 0
-2449 0
-2450 0
-2451 0
-2452 0
-2453 0
-2454 0
-2396 0
-2397 0
-2398 0
-2399 0
-2400 0
-2401 0
-2402 0
-2252 0
-2403 0
-2253 0
-2404 0
-2254 0
-2405 0
-2255 0
-2406 0
-2407 0
-2408 0
-2409 0
-2410 0
-2411 0
-2412 0
-2413 0
-2414 0
-2415 0
-2395 0
-2256 0
-2416 0
-2325 0
-2326 0
-2327 0
-2328 0
-2257 0
-2258 0
-2329 0
-2330 0
-2259 0
-2331 0
-2260 0
-2332 0
-2333 0
-2334 0
-2335 0
-2336 0
-2337 0
-2338 0
-2261 0
-2339 0
-2340 0
-2341 0
-2342 0
-2343 0
-2344 0
-2262 0
-2345 0
-2263 0
-2346 0
-2347 0
-2417 0
-2418 0
-2264 0
-2265 0
-2419 0
-2420 0
-2421 0
-2422 0
-2423 0
-2424 0
-2425 0
-2426 0
-2427 0
-2428 0
-2429 0
-2430 0
-2431 0
-2432 0
-2433 0
-2266 0
-1784 0
-2434 0
-2267 0
-2435 0
-2268 0
-2269 0
-2436 0
-2437 0
-2438 0
-2439 0
-2302 0
-2303 0
-2304 0
-2305 0
-2306 0
-2307 0
-2308 0
-2270 0
-2309 0
-2310 0
-2311 0
-2312 0
-2313 0
-2314 0
-2271 0
-2315 0
-2272 0
-2316 0
-2317 0
-2273 0
-2274 0
-2318 0
-2319 0
-2320 0
-2321 0
-2322 0
-2323 0
-2324 0
-2348 0
-2275 0
-2276 0
-2349 0
-2350 0
-2351 0
-2277 0
-2352 0
-2353 0
-2354 0
-2355 0
-2356 0
-2357 0
-2358 0
-1785 0
-2359 0
-2360 0
-2361 0
-2362 0
-2363 0
-2364 0
-2365 0
-2366 0
-2278 0
-2367 0
-2368 0
-2369 0
-2279 0
-2370 0
-2280 0
-2371 0
-2372 0
-2281 0
-2282 0
-2373 0
-2374 0
-2375 0
-2376 0
-2377 0
-2378 0
-2379 0
-2380 0
-2381 0
-2382 0
-2383 0
-2384 0
-2385 0
-2386 0
-2387 0
-2388 0
-2389 0
-2390 0
-2391 0
-2392 0
-2393 0
-2070 0
-2071 0
-2072 0
-2073 0
-2074 0
-2075 0
-2076 0
-2077 0
-2078 0
-2079 0
-2080 0
-2081 0
-2082 0
-2083 0
-2084 0
-2085 0
-2086 0
-2087 0
-2088 0
-2089 0
-2090 0
-2091 0
-2092 0
-1786 0
-1787 0
-1788 0
-1789 0
-1790 0
-1791 0
-1792 0
-1793 0
-1794 0
-1795 0
-1796 0
-1797 0
-1798 0
-2298 0
-1799 0
-1800 0
-1801 0
-1802 0
-1803 0
-1804 0
-1805 0
-1806 0
-1807 0
-1808 0
-1809 0
-1810 0
-1811 0
-1812 0
-1813 0
-1814 0
-1815 0
-1816 0
-1817 0
-1818 0
-1819 0
-1820 0
-1821 0
-1822 0
-1823 0
-1824 0
-1825 0
-1826 0
-1827 0
-1828 0
-1738 0
-1739 0
-1740 0
-1741 0
-1742 0
-1743 0
-1744 0
-1745 0
-1746 0
-2299 0
-1747 0
-1748 0
-1749 0
-1750 0
-1751 0
-1752 0
-1753 0
-1754 0
-1755 0
-1756 0
-1757 0
-1758 0
-1759 0
-1760 0
-1761 0
-1762 0
-1763 0
-1764 0
-1765 0
-1766 0
-1767 0
-1768 0
-1769 0
-1770 0
-1771 0
-1772 0
-1773 0
-1774 0
-1775 0
-1776 0
-1777 0
-1778 0
-1779 0
-1780 0
-1781 0
-1782 0
-1783 0
-1692 0
-1693 0
-1694 0
-1695 0
-1696 0
-1697 0
-1698 0
-1699 0
-1700 0
-1701 0
-1702 0
-1703 0
-1704 0
-1705 0
-1706 0
-1707 0
-1708 0
-1709 0
-1710 0
-1711 0
-1712 0
-1713 0
-1714 0
-1715 0
-1716 0
-1717 0
-1718 0
-1719 0
-1720 0
-1721 0
-1722 0
-1723 0
-1724 0
-1725 0

